% File represents an instance of a Composite Structure problem to be solved by a CP framework
% Created on 2025-03-26 10:41:19.893
T = 54;
n = 9;
m = 12;
edges = [(2, 1),
(5, 4),
(8, 7),
(2, 3),
(6, 5),
(9, 8),
(1, 4),
(4, 7),
(2, 5),
(5, 8),
(6, 3),
(6, 9)];
counts = [|16, 12, 16, 4,
|16, 16, 16, 4,
|16, 14, 16, 4,
|16, 8, 16, 2,
|16, 14, 16, 2,
|16, 14, 16, 8,
|14, 8, 14, 2,
|14, 12, 14, 2,
|16, 14, 16, 2|];
